%%% Exp_DoseResponse conditions	%%%
%% 2 plates
%% 2020/Nov/17 It takes about 315 msec

%% Plate dimentions: (this is a 96-well plate)
num_rows = 8; %% height
num_cols = 12; %% width

vertical_cell_lines	 = 1;
horizontal_cell_lines	 = 1;

allow_empty_wells = true;

size_empty_edge = 1; 

% New and used!
concentrations_on_different_rows = true;
concentrations_on_different_columns = true;

% New and unused! (Restriction: replicates_on_different_plates /\ replicates_on_same_plate == false)
replicates_on_different_plates = true;
replicates_on_same_plate = false;



%%% Compounds %%%
compounds = 1+1; %% number of drugs/compounds
compound_concentrations	 = [1,1]; 
compound_replicates	 = [2,2];

compound_concentration_names = [|"comp-conc1"|"comb-conc1"|];
compound_concentration_indicators = [""]; 
compound_names = ["BPA","BPA+H"]; 


%%% Combinations %%%
combinations 	= 0;
combination_concentrations = 0;

combination_names = []; 
  
combination_concentration_names = [];


%% Controls %%

num_controls = 4;
control_concentrations = [2,2,2,2];

control_replicates = [10,10,10,10];

control_names = ["pos","neg","blank","dmso"];
control_concentration_names =  array2d(1..num_controls, 1..2,["cont\(ceil(i/max(control_concentrations)))-conc\(((i-1) mod max(control_concentrations)) + 1)" | i in 1..num_controls*max(control_concentrations)]);
  
